<number of tasks>
50

<cycle time>
1000

<order strength>
0.605


<task times>
1 208
2 100
3 148
4 178
5 121
6 109
7 95
8 224
9 81
10 208
11 85
12 156
13 68
14 145
15 36
16 338
17 215
18 147
19 148
20 85
21 221
22 128
23 141
24 81
25 244
26 49
27 114
28 111
29 85
30 31
31 80
32 232
33 184
34 84
35 208
36 145
37 115
38 136
39 96
40 48
41 79
42 88
43 223
44 130
45 230
46 223
47 153
48 57
49 203
50 147

<precedence relations>
1,7
2,7
3,7
4,7
5,6
5,8
5,9
5,10
6,33
7,11
7,12
7,13
7,14
8,27
8,31
9,15
9,16
10,15
10,16
11,17
11,18
11,19
11,25
12,34
12,45
13,20
14,17
15,18
15,19
15,20
16,32
16,36
17,33
18,44
19,21
19,26
20,21
20,22
20,23
21,33
22,44
23,24
23,25
23,26
24,33
25,29
25,45
26,27
26,28
26,30
26,31
26,32
27,33
28,33
29,34
31,35
31,36
32,33
33,37
33,38
33,39
33,40
33,41
33,42
34,44
35,41
35,43
36,42
37,44
39,45
41,44
44,46
44,47
44,48
44,49
44,50

<end>
